4
28
0 53 40 21 73 72 74 75 22 41 57 2 87 97 95 89 52 18 83 60 5 84 38 17 45 8 46 62
21
0 27 69 1 50 76 77 79 54 24 29 78 34 35 71 10 63 90 32 66 65
26
0 28 26 12 80 68 3 33 81 9 51 20 30 70 31 88 7 82 48 19 47 36 49 64 11 86
29
0 58 13 94 6 96 99 59 92 98 37 100 91 85 93 61 16 44 14 42 43 15 56 39 23 67 25 55 4
